12
0 37 19 76 14 11 52 13 26 96 58 80 
78 0 5 29 46 51 77 9 72 63 95 86 
85 98 0 7 95 78 9 42 58 16 70 94 
48 28 84 0 9 33 13 61 97 86 51 61 
52 80 20 56 0 5 64 91 11 43 58 54 
87 56 14 72 83 0 8 74 40 87 51 44 
73 45 20 78 74 6 0 32 39 40 24 91 
19 17 95 81 87 99 78 0 51 94 18 35 
23 79 54 90 41 60 64 94 0 92 79 86 
96 9 19 62 35 17 22 91 40 0 65 40 
78 7 81 46 92 67 69 43 19 11 0 68 
74 30 56 50 50 56 5 17 15 52 45 0 
